
;this file is automatically generated: Tue Mar 02 15:25:47 CST 2021

;declarations generated

(declare-fun oclExcludes ( Int Int) Bool)
(declare-fun Cardinality ( Int) Int)
(declare-fun type_48eb3c13_48f0_4064_be30_90725207909a_Class10 ( Int) Bool)
(declare-fun type_48eb3c13_48f0_4064_be30_90725207909a_Class11 ( Int) Bool)
(declare-fun type_48eb3c13_48f0_4064_be30_90725207909a_Class12 ( Int) Bool)
(declare-fun type_48eb3c13_48f0_4064_be30_90725207909a_Class13 ( Int) Bool)
(declare-fun type_48eb3c13_48f0_4064_be30_90725207909a_Class14 ( Int) Bool)
(declare-fun type_48eb3c13_48f0_4064_be30_90725207909a_Class15 ( Int) Bool)
(declare-fun type_48eb3c13_48f0_4064_be30_90725207909a_Class16 ( Int) Bool)
(declare-fun type_48eb3c13_48f0_4064_be30_90725207909a_Class17 ( Int) Bool)
(declare-fun type_48eb3c13_48f0_4064_be30_90725207909a_Class18 ( Int) Bool)
(declare-fun type_48eb3c13_48f0_4064_be30_90725207909a_Class19 ( Int) Bool)
(declare-fun type_48eb3c13_48f0_4064_be30_90725207909a_Class1 ( Int) Bool)
(declare-fun type_48eb3c13_48f0_4064_be30_90725207909a_Class0 ( Int) Bool)
(declare-fun type_48eb3c13_48f0_4064_be30_90725207909a_Class3 ( Int) Bool)
(declare-fun type_48eb3c13_48f0_4064_be30_90725207909a_Class2 ( Int) Bool)
(declare-fun type_48eb3c13_48f0_4064_be30_90725207909a_Class5 ( Int) Bool)
(declare-fun type_48eb3c13_48f0_4064_be30_90725207909a_Class4 ( Int) Bool)
(declare-fun type_48eb3c13_48f0_4064_be30_90725207909a_Class7 ( Int) Bool)
(declare-fun type_48eb3c13_48f0_4064_be30_90725207909a_Class6 ( Int) Bool)
(declare-fun type_48eb3c13_48f0_4064_be30_90725207909a_Class9 ( Int) Bool)
(declare-fun type_48eb3c13_48f0_4064_be30_90725207909a_Class8 ( Int) Bool)
(declare-fun obj_5f875d7b_e7ae_4b0f_909a_d450223600ff ( Int) Int)
(declare-fun oclSelect ( Int Bool) Int)
(declare-fun class21_Class21IntAttr2 ( Int) Int)
(declare-fun class21_Class21IntAttr3 ( Int) Int)
(declare-fun type_48eb3c13_48f0_4064_be30_90725207909a_Class30 ( Int) Bool)
(declare-fun type_48eb3c13_48f0_4064_be30_90725207909a_Class31 ( Int) Bool)
(declare-fun type_48eb3c13_48f0_4064_be30_90725207909a_Class32 ( Int) Bool)
(declare-fun type_48eb3c13_48f0_4064_be30_90725207909a_Class33 ( Int) Bool)
(declare-fun type_48eb3c13_48f0_4064_be30_90725207909a_Class34 ( Int) Bool)
(declare-fun type_48eb3c13_48f0_4064_be30_90725207909a_Class35 ( Int) Bool)
(declare-fun type_48eb3c13_48f0_4064_be30_90725207909a_Class36 ( Int) Bool)
(declare-fun type_48eb3c13_48f0_4064_be30_90725207909a_Class37 ( Int) Bool)
(declare-fun type_48eb3c13_48f0_4064_be30_90725207909a_Class38 ( Int) Bool)
(declare-fun type_48eb3c13_48f0_4064_be30_90725207909a_Class39 ( Int) Bool)
(declare-fun Enum0 ( Int) Int)
(declare-fun Enum1 ( Int) Int)
(declare-fun type_48eb3c13_48f0_4064_be30_90725207909a_Class20 ( Int) Bool)
(declare-fun Enum2 ( Int) Int)
(declare-fun type_48eb3c13_48f0_4064_be30_90725207909a_Class21 ( Int) Bool)
(declare-fun type_48eb3c13_48f0_4064_be30_90725207909a_Class22 ( Int) Bool)
(declare-fun type_48eb3c13_48f0_4064_be30_90725207909a_Class23 ( Int) Bool)
(declare-fun type_48eb3c13_48f0_4064_be30_90725207909a_Class24 ( Int) Bool)
(declare-fun type_48eb3c13_48f0_4064_be30_90725207909a_Class25 ( Int) Bool)
(declare-fun type_48eb3c13_48f0_4064_be30_90725207909a_Class26 ( Int) Bool)
(declare-fun type_48eb3c13_48f0_4064_be30_90725207909a_Class27 ( Int) Bool)
(declare-fun type_48eb3c13_48f0_4064_be30_90725207909a_Class28 ( Int) Bool)
(declare-fun type_48eb3c13_48f0_4064_be30_90725207909a_Class29 ( Int) Bool)
(declare-fun type_48eb3c13_48f0_4064_be30_90725207909a_Class50 ( Int) Bool)
(declare-fun type_48eb3c13_48f0_4064_be30_90725207909a_Class51 ( Int) Bool)
(declare-fun type_48eb3c13_48f0_4064_be30_90725207909a_Class52 ( Int) Bool)
(declare-fun type_48eb3c13_48f0_4064_be30_90725207909a_Class53 ( Int) Bool)
(declare-fun type_48eb3c13_48f0_4064_be30_90725207909a_Class54 ( Int) Bool)
(declare-fun type_48eb3c13_48f0_4064_be30_90725207909a_Class55 ( Int) Bool)
(declare-fun container_ ( Int) Int)
(declare-fun type_48eb3c13_48f0_4064_be30_90725207909a_Class40 ( Int) Bool)
(declare-fun type_48eb3c13_48f0_4064_be30_90725207909a_Class41 ( Int) Bool)
(declare-fun type_48eb3c13_48f0_4064_be30_90725207909a_Class42 ( Int) Bool)
(declare-fun type_48eb3c13_48f0_4064_be30_90725207909a_Class43 ( Int) Bool)
(declare-fun type_48eb3c13_48f0_4064_be30_90725207909a_Class44 ( Int) Bool)
(declare-fun type_48eb3c13_48f0_4064_be30_90725207909a_Class45 ( Int) Bool)
(declare-fun class21_Class21BoolAttr1 ( Int) Bool)
(declare-fun type_48eb3c13_48f0_4064_be30_90725207909a_Class46 ( Int) Bool)
(declare-fun class21_Class21BoolAttr0 ( Int) Bool)
(declare-fun type_48eb3c13_48f0_4064_be30_90725207909a_Class47 ( Int) Bool)
(declare-fun type_48eb3c13_48f0_4064_be30_90725207909a_Class48 ( Int) Bool)
(declare-fun type_48eb3c13_48f0_4064_be30_90725207909a_Class49 ( Int) Bool)
(declare-fun oclIncludes ( Int Int) Bool)
(declare-fun ObjAt ( Int Int) Int)

;formula(s) generated
(assert (! (forall ((c1_2 Int)(c1_1 Int)) (=> (and (and (and (and (and (and (and (and (and (and ( type_48eb3c13_48f0_4064_be30_90725207909a_Class21 c1_1 )  ( type_48eb3c13_48f0_4064_be30_90725207909a_Class45 c1_1 ) ) ( type_48eb3c13_48f0_4064_be30_90725207909a_Class12 c1_1 ) ) ( type_48eb3c13_48f0_4064_be30_90725207909a_Class33 c1_1 ) ) ( type_48eb3c13_48f0_4064_be30_90725207909a_Class22 c1_1 ) ) ( type_48eb3c13_48f0_4064_be30_90725207909a_Class16 c1_1 ) ) ( type_48eb3c13_48f0_4064_be30_90725207909a_Class29 c1_1 ) ) ( type_48eb3c13_48f0_4064_be30_90725207909a_Class39 c1_1 ) ) ( type_48eb3c13_48f0_4064_be30_90725207909a_Class41 c1_1 ) ) ( type_48eb3c13_48f0_4064_be30_90725207909a_Class51 c1_1 ) ) (and (and (and (and (and (and (and (and (and ( type_48eb3c13_48f0_4064_be30_90725207909a_Class21 c1_2 )  ( type_48eb3c13_48f0_4064_be30_90725207909a_Class45 c1_2 ) ) ( type_48eb3c13_48f0_4064_be30_90725207909a_Class12 c1_2 ) ) ( type_48eb3c13_48f0_4064_be30_90725207909a_Class33 c1_2 ) ) ( type_48eb3c13_48f0_4064_be30_90725207909a_Class22 c1_2 ) ) ( type_48eb3c13_48f0_4064_be30_90725207909a_Class16 c1_2 ) ) ( type_48eb3c13_48f0_4064_be30_90725207909a_Class29 c1_2 ) ) ( type_48eb3c13_48f0_4064_be30_90725207909a_Class39 c1_2 ) ) ( type_48eb3c13_48f0_4064_be30_90725207909a_Class41 c1_2 ) ) ( type_48eb3c13_48f0_4064_be30_90725207909a_Class51 c1_2 ) )) (not (= ( class21_Class21IntAttr2 ( obj_5f875d7b_e7ae_4b0f_909a_d450223600ff c1_1 )  )  ( class21_Class21IntAttr3 ( obj_5f875d7b_e7ae_4b0f_909a_d450223600ff c1_2 )  ) ) ))):named l0))
(assert (! (forall ((v Int)) (=> (and (and (and (and (and (and (and (and (and ( type_48eb3c13_48f0_4064_be30_90725207909a_Class21 v )  ( type_48eb3c13_48f0_4064_be30_90725207909a_Class45 v ) ) ( type_48eb3c13_48f0_4064_be30_90725207909a_Class12 v ) ) ( type_48eb3c13_48f0_4064_be30_90725207909a_Class33 v ) ) ( type_48eb3c13_48f0_4064_be30_90725207909a_Class22 v ) ) ( type_48eb3c13_48f0_4064_be30_90725207909a_Class16 v ) ) ( type_48eb3c13_48f0_4064_be30_90725207909a_Class29 v ) ) ( type_48eb3c13_48f0_4064_be30_90725207909a_Class39 v ) ) ( type_48eb3c13_48f0_4064_be30_90725207909a_Class41 v ) ) ( type_48eb3c13_48f0_4064_be30_90725207909a_Class51 v ) ) (<= ( class21_Class21IntAttr3 ( obj_5f875d7b_e7ae_4b0f_909a_d450223600ff v )  )  7))):named l1))
(assert (! (forall ((c1 Int)) (=> (and (and (and (and (and (and (and (and (and ( type_48eb3c13_48f0_4064_be30_90725207909a_Class21 c1 )  ( type_48eb3c13_48f0_4064_be30_90725207909a_Class45 c1 ) ) ( type_48eb3c13_48f0_4064_be30_90725207909a_Class12 c1 ) ) ( type_48eb3c13_48f0_4064_be30_90725207909a_Class33 c1 ) ) ( type_48eb3c13_48f0_4064_be30_90725207909a_Class22 c1 ) ) ( type_48eb3c13_48f0_4064_be30_90725207909a_Class16 c1 ) ) ( type_48eb3c13_48f0_4064_be30_90725207909a_Class29 c1 ) ) ( type_48eb3c13_48f0_4064_be30_90725207909a_Class39 c1 ) ) ( type_48eb3c13_48f0_4064_be30_90725207909a_Class41 c1 ) ) ( type_48eb3c13_48f0_4064_be30_90725207909a_Class51 c1 ) ) ( class21_Class21BoolAttr1 ( obj_5f875d7b_e7ae_4b0f_909a_d450223600ff c1 )  ) )):named l2))
(assert (! (or (and (forall ((v Int)) (=> (and (and (and (and (and (and (and (and (and ( type_48eb3c13_48f0_4064_be30_90725207909a_Class21 v )  ( type_48eb3c13_48f0_4064_be30_90725207909a_Class45 v ) ) ( type_48eb3c13_48f0_4064_be30_90725207909a_Class12 v ) ) ( type_48eb3c13_48f0_4064_be30_90725207909a_Class33 v ) ) ( type_48eb3c13_48f0_4064_be30_90725207909a_Class22 v ) ) ( type_48eb3c13_48f0_4064_be30_90725207909a_Class16 v ) ) ( type_48eb3c13_48f0_4064_be30_90725207909a_Class29 v ) ) ( type_48eb3c13_48f0_4064_be30_90725207909a_Class39 v ) ) ( type_48eb3c13_48f0_4064_be30_90725207909a_Class41 v ) ) ( type_48eb3c13_48f0_4064_be30_90725207909a_Class51 v ) ) (> ( class21_Class21IntAttr2 ( obj_5f875d7b_e7ae_4b0f_909a_d450223600ff v )  )  14))) (forall ((v Int)) (=> (and (and (and (and (and (and (and (and (and ( type_48eb3c13_48f0_4064_be30_90725207909a_Class21 v )  ( type_48eb3c13_48f0_4064_be30_90725207909a_Class45 v ) ) ( type_48eb3c13_48f0_4064_be30_90725207909a_Class12 v ) ) ( type_48eb3c13_48f0_4064_be30_90725207909a_Class33 v ) ) ( type_48eb3c13_48f0_4064_be30_90725207909a_Class22 v ) ) ( type_48eb3c13_48f0_4064_be30_90725207909a_Class16 v ) ) ( type_48eb3c13_48f0_4064_be30_90725207909a_Class29 v ) ) ( type_48eb3c13_48f0_4064_be30_90725207909a_Class39 v ) ) ( type_48eb3c13_48f0_4064_be30_90725207909a_Class41 v ) ) ( type_48eb3c13_48f0_4064_be30_90725207909a_Class51 v ) ) ( class21_Class21BoolAttr0 ( obj_5f875d7b_e7ae_4b0f_909a_d450223600ff v )  ) ))) (or (forall ((v Int)) (=> (and (and (and (and (and (and (and (and (and ( type_48eb3c13_48f0_4064_be30_90725207909a_Class21 v )  ( type_48eb3c13_48f0_4064_be30_90725207909a_Class45 v ) ) ( type_48eb3c13_48f0_4064_be30_90725207909a_Class12 v ) ) ( type_48eb3c13_48f0_4064_be30_90725207909a_Class33 v ) ) ( type_48eb3c13_48f0_4064_be30_90725207909a_Class22 v ) ) ( type_48eb3c13_48f0_4064_be30_90725207909a_Class16 v ) ) ( type_48eb3c13_48f0_4064_be30_90725207909a_Class29 v ) ) ( type_48eb3c13_48f0_4064_be30_90725207909a_Class39 v ) ) ( type_48eb3c13_48f0_4064_be30_90725207909a_Class41 v ) ) ( type_48eb3c13_48f0_4064_be30_90725207909a_Class51 v ) ) ( class21_Class21BoolAttr1 ( obj_5f875d7b_e7ae_4b0f_909a_d450223600ff v )  ) )) (forall ((v Int)) (=> (and (and (and (and (and (and (and (and (and ( type_48eb3c13_48f0_4064_be30_90725207909a_Class21 v )  ( type_48eb3c13_48f0_4064_be30_90725207909a_Class45 v ) ) ( type_48eb3c13_48f0_4064_be30_90725207909a_Class12 v ) ) ( type_48eb3c13_48f0_4064_be30_90725207909a_Class33 v ) ) ( type_48eb3c13_48f0_4064_be30_90725207909a_Class22 v ) ) ( type_48eb3c13_48f0_4064_be30_90725207909a_Class16 v ) ) ( type_48eb3c13_48f0_4064_be30_90725207909a_Class29 v ) ) ( type_48eb3c13_48f0_4064_be30_90725207909a_Class39 v ) ) ( type_48eb3c13_48f0_4064_be30_90725207909a_Class41 v ) ) ( type_48eb3c13_48f0_4064_be30_90725207909a_Class51 v ) ) (> ( class21_Class21IntAttr3 ( obj_5f875d7b_e7ae_4b0f_909a_d450223600ff v )  )  10))))):named l3))
(assert (! (exists ((o Int)) ( type_48eb3c13_48f0_4064_be30_90725207909a_Class0 ( obj_5f875d7b_e7ae_4b0f_909a_d450223600ff o )  ) ):named c0))
(assert (! (exists ((o Int)) (and (and (and (and (and ( type_48eb3c13_48f0_4064_be30_90725207909a_Class1 ( obj_5f875d7b_e7ae_4b0f_909a_d450223600ff o )  )  ( type_48eb3c13_48f0_4064_be30_90725207909a_Class45 ( obj_5f875d7b_e7ae_4b0f_909a_d450223600ff o )  ) ) ( type_48eb3c13_48f0_4064_be30_90725207909a_Class12 ( obj_5f875d7b_e7ae_4b0f_909a_d450223600ff o )  ) ) ( type_48eb3c13_48f0_4064_be30_90725207909a_Class33 ( obj_5f875d7b_e7ae_4b0f_909a_d450223600ff o )  ) ) ( type_48eb3c13_48f0_4064_be30_90725207909a_Class22 ( obj_5f875d7b_e7ae_4b0f_909a_d450223600ff o )  ) ) ( type_48eb3c13_48f0_4064_be30_90725207909a_Class39 ( obj_5f875d7b_e7ae_4b0f_909a_d450223600ff o )  ) )):named c1))
(assert (! (exists ((o Int)) (and (and (and (and (and (and (and (and (and ( type_48eb3c13_48f0_4064_be30_90725207909a_Class10 ( obj_5f875d7b_e7ae_4b0f_909a_d450223600ff o )  )  ( type_48eb3c13_48f0_4064_be30_90725207909a_Class45 ( obj_5f875d7b_e7ae_4b0f_909a_d450223600ff o )  ) ) ( type_48eb3c13_48f0_4064_be30_90725207909a_Class12 ( obj_5f875d7b_e7ae_4b0f_909a_d450223600ff o )  ) ) ( type_48eb3c13_48f0_4064_be30_90725207909a_Class55 ( obj_5f875d7b_e7ae_4b0f_909a_d450223600ff o )  ) ) ( type_48eb3c13_48f0_4064_be30_90725207909a_Class33 ( obj_5f875d7b_e7ae_4b0f_909a_d450223600ff o )  ) ) ( type_48eb3c13_48f0_4064_be30_90725207909a_Class22 ( obj_5f875d7b_e7ae_4b0f_909a_d450223600ff o )  ) ) ( type_48eb3c13_48f0_4064_be30_90725207909a_Class29 ( obj_5f875d7b_e7ae_4b0f_909a_d450223600ff o )  ) ) ( type_48eb3c13_48f0_4064_be30_90725207909a_Class39 ( obj_5f875d7b_e7ae_4b0f_909a_d450223600ff o )  ) ) ( type_48eb3c13_48f0_4064_be30_90725207909a_Class50 ( obj_5f875d7b_e7ae_4b0f_909a_d450223600ff o )  ) ) ( type_48eb3c13_48f0_4064_be30_90725207909a_Class41 ( obj_5f875d7b_e7ae_4b0f_909a_d450223600ff o )  ) )):named c2))
(assert (! (exists ((o Int)) ( type_48eb3c13_48f0_4064_be30_90725207909a_Class11 ( obj_5f875d7b_e7ae_4b0f_909a_d450223600ff o )  ) ):named c3))
(assert (! (exists ((o Int)) (and (and (and ( type_48eb3c13_48f0_4064_be30_90725207909a_Class12 ( obj_5f875d7b_e7ae_4b0f_909a_d450223600ff o )  )  ( type_48eb3c13_48f0_4064_be30_90725207909a_Class33 ( obj_5f875d7b_e7ae_4b0f_909a_d450223600ff o )  ) ) ( type_48eb3c13_48f0_4064_be30_90725207909a_Class22 ( obj_5f875d7b_e7ae_4b0f_909a_d450223600ff o )  ) ) ( type_48eb3c13_48f0_4064_be30_90725207909a_Class39 ( obj_5f875d7b_e7ae_4b0f_909a_d450223600ff o )  ) )):named c4))
(assert (! (exists ((o Int)) (and (and (and (and (and (and (and (and (and ( type_48eb3c13_48f0_4064_be30_90725207909a_Class13 ( obj_5f875d7b_e7ae_4b0f_909a_d450223600ff o )  )  ( type_48eb3c13_48f0_4064_be30_90725207909a_Class45 ( obj_5f875d7b_e7ae_4b0f_909a_d450223600ff o )  ) ) ( type_48eb3c13_48f0_4064_be30_90725207909a_Class12 ( obj_5f875d7b_e7ae_4b0f_909a_d450223600ff o )  ) ) ( type_48eb3c13_48f0_4064_be30_90725207909a_Class55 ( obj_5f875d7b_e7ae_4b0f_909a_d450223600ff o )  ) ) ( type_48eb3c13_48f0_4064_be30_90725207909a_Class33 ( obj_5f875d7b_e7ae_4b0f_909a_d450223600ff o )  ) ) ( type_48eb3c13_48f0_4064_be30_90725207909a_Class22 ( obj_5f875d7b_e7ae_4b0f_909a_d450223600ff o )  ) ) ( type_48eb3c13_48f0_4064_be30_90725207909a_Class29 ( obj_5f875d7b_e7ae_4b0f_909a_d450223600ff o )  ) ) ( type_48eb3c13_48f0_4064_be30_90725207909a_Class39 ( obj_5f875d7b_e7ae_4b0f_909a_d450223600ff o )  ) ) ( type_48eb3c13_48f0_4064_be30_90725207909a_Class50 ( obj_5f875d7b_e7ae_4b0f_909a_d450223600ff o )  ) ) ( type_48eb3c13_48f0_4064_be30_90725207909a_Class41 ( obj_5f875d7b_e7ae_4b0f_909a_d450223600ff o )  ) )):named c5))
(assert (! (exists ((o Int)) (and (and (and (and (and (and (and (and (and ( type_48eb3c13_48f0_4064_be30_90725207909a_Class14 ( obj_5f875d7b_e7ae_4b0f_909a_d450223600ff o )  )  ( type_48eb3c13_48f0_4064_be30_90725207909a_Class45 ( obj_5f875d7b_e7ae_4b0f_909a_d450223600ff o )  ) ) ( type_48eb3c13_48f0_4064_be30_90725207909a_Class12 ( obj_5f875d7b_e7ae_4b0f_909a_d450223600ff o )  ) ) ( type_48eb3c13_48f0_4064_be30_90725207909a_Class55 ( obj_5f875d7b_e7ae_4b0f_909a_d450223600ff o )  ) ) ( type_48eb3c13_48f0_4064_be30_90725207909a_Class33 ( obj_5f875d7b_e7ae_4b0f_909a_d450223600ff o )  ) ) ( type_48eb3c13_48f0_4064_be30_90725207909a_Class22 ( obj_5f875d7b_e7ae_4b0f_909a_d450223600ff o )  ) ) ( type_48eb3c13_48f0_4064_be30_90725207909a_Class29 ( obj_5f875d7b_e7ae_4b0f_909a_d450223600ff o )  ) ) ( type_48eb3c13_48f0_4064_be30_90725207909a_Class39 ( obj_5f875d7b_e7ae_4b0f_909a_d450223600ff o )  ) ) ( type_48eb3c13_48f0_4064_be30_90725207909a_Class50 ( obj_5f875d7b_e7ae_4b0f_909a_d450223600ff o )  ) ) ( type_48eb3c13_48f0_4064_be30_90725207909a_Class41 ( obj_5f875d7b_e7ae_4b0f_909a_d450223600ff o )  ) )):named c6))
(assert (! (exists ((o Int)) ( type_48eb3c13_48f0_4064_be30_90725207909a_Class15 ( obj_5f875d7b_e7ae_4b0f_909a_d450223600ff o )  ) ):named c7))
(assert (! (exists ((o Int)) (and (and (and (and (and ( type_48eb3c13_48f0_4064_be30_90725207909a_Class16 ( obj_5f875d7b_e7ae_4b0f_909a_d450223600ff o )  )  ( type_48eb3c13_48f0_4064_be30_90725207909a_Class45 ( obj_5f875d7b_e7ae_4b0f_909a_d450223600ff o )  ) ) ( type_48eb3c13_48f0_4064_be30_90725207909a_Class12 ( obj_5f875d7b_e7ae_4b0f_909a_d450223600ff o )  ) ) ( type_48eb3c13_48f0_4064_be30_90725207909a_Class33 ( obj_5f875d7b_e7ae_4b0f_909a_d450223600ff o )  ) ) ( type_48eb3c13_48f0_4064_be30_90725207909a_Class22 ( obj_5f875d7b_e7ae_4b0f_909a_d450223600ff o )  ) ) ( type_48eb3c13_48f0_4064_be30_90725207909a_Class39 ( obj_5f875d7b_e7ae_4b0f_909a_d450223600ff o )  ) )):named c8))
(assert (! (exists ((o Int)) ( type_48eb3c13_48f0_4064_be30_90725207909a_Class17 ( obj_5f875d7b_e7ae_4b0f_909a_d450223600ff o )  ) ):named c9))
(assert (! (exists ((o Int)) (and (and (and ( type_48eb3c13_48f0_4064_be30_90725207909a_Class18 ( obj_5f875d7b_e7ae_4b0f_909a_d450223600ff o )  )  ( type_48eb3c13_48f0_4064_be30_90725207909a_Class25 ( obj_5f875d7b_e7ae_4b0f_909a_d450223600ff o )  ) ) ( type_48eb3c13_48f0_4064_be30_90725207909a_Class24 ( obj_5f875d7b_e7ae_4b0f_909a_d450223600ff o )  ) ) ( type_48eb3c13_48f0_4064_be30_90725207909a_Class39 ( obj_5f875d7b_e7ae_4b0f_909a_d450223600ff o )  ) )):named c10))
(assert (! (exists ((o Int)) (and (and (and (and (and (and (and (and (and ( type_48eb3c13_48f0_4064_be30_90725207909a_Class19 ( obj_5f875d7b_e7ae_4b0f_909a_d450223600ff o )  )  ( type_48eb3c13_48f0_4064_be30_90725207909a_Class45 ( obj_5f875d7b_e7ae_4b0f_909a_d450223600ff o )  ) ) ( type_48eb3c13_48f0_4064_be30_90725207909a_Class12 ( obj_5f875d7b_e7ae_4b0f_909a_d450223600ff o )  ) ) ( type_48eb3c13_48f0_4064_be30_90725207909a_Class55 ( obj_5f875d7b_e7ae_4b0f_909a_d450223600ff o )  ) ) ( type_48eb3c13_48f0_4064_be30_90725207909a_Class33 ( obj_5f875d7b_e7ae_4b0f_909a_d450223600ff o )  ) ) ( type_48eb3c13_48f0_4064_be30_90725207909a_Class22 ( obj_5f875d7b_e7ae_4b0f_909a_d450223600ff o )  ) ) ( type_48eb3c13_48f0_4064_be30_90725207909a_Class29 ( obj_5f875d7b_e7ae_4b0f_909a_d450223600ff o )  ) ) ( type_48eb3c13_48f0_4064_be30_90725207909a_Class39 ( obj_5f875d7b_e7ae_4b0f_909a_d450223600ff o )  ) ) ( type_48eb3c13_48f0_4064_be30_90725207909a_Class50 ( obj_5f875d7b_e7ae_4b0f_909a_d450223600ff o )  ) ) ( type_48eb3c13_48f0_4064_be30_90725207909a_Class41 ( obj_5f875d7b_e7ae_4b0f_909a_d450223600ff o )  ) )):named c11))
(assert (! (exists ((o Int)) ( type_48eb3c13_48f0_4064_be30_90725207909a_Class2 ( obj_5f875d7b_e7ae_4b0f_909a_d450223600ff o )  ) ):named c12))
(assert (! (exists ((o Int)) ( type_48eb3c13_48f0_4064_be30_90725207909a_Class20 ( obj_5f875d7b_e7ae_4b0f_909a_d450223600ff o )  ) ):named c13))
(assert (! (exists ((o Int)) (and (and (and (and (and (and (and (and (and ( type_48eb3c13_48f0_4064_be30_90725207909a_Class21 ( obj_5f875d7b_e7ae_4b0f_909a_d450223600ff o )  )  ( type_48eb3c13_48f0_4064_be30_90725207909a_Class45 ( obj_5f875d7b_e7ae_4b0f_909a_d450223600ff o )  ) ) ( type_48eb3c13_48f0_4064_be30_90725207909a_Class12 ( obj_5f875d7b_e7ae_4b0f_909a_d450223600ff o )  ) ) ( type_48eb3c13_48f0_4064_be30_90725207909a_Class33 ( obj_5f875d7b_e7ae_4b0f_909a_d450223600ff o )  ) ) ( type_48eb3c13_48f0_4064_be30_90725207909a_Class22 ( obj_5f875d7b_e7ae_4b0f_909a_d450223600ff o )  ) ) ( type_48eb3c13_48f0_4064_be30_90725207909a_Class16 ( obj_5f875d7b_e7ae_4b0f_909a_d450223600ff o )  ) ) ( type_48eb3c13_48f0_4064_be30_90725207909a_Class29 ( obj_5f875d7b_e7ae_4b0f_909a_d450223600ff o )  ) ) ( type_48eb3c13_48f0_4064_be30_90725207909a_Class39 ( obj_5f875d7b_e7ae_4b0f_909a_d450223600ff o )  ) ) ( type_48eb3c13_48f0_4064_be30_90725207909a_Class41 ( obj_5f875d7b_e7ae_4b0f_909a_d450223600ff o )  ) ) ( type_48eb3c13_48f0_4064_be30_90725207909a_Class51 ( obj_5f875d7b_e7ae_4b0f_909a_d450223600ff o )  ) )):named c14))
(assert (! (exists ((o Int)) (and ( type_48eb3c13_48f0_4064_be30_90725207909a_Class22 ( obj_5f875d7b_e7ae_4b0f_909a_d450223600ff o )  )  ( type_48eb3c13_48f0_4064_be30_90725207909a_Class39 ( obj_5f875d7b_e7ae_4b0f_909a_d450223600ff o )  ) )):named c15))
(assert (! (exists ((o Int)) (and (and (and (and ( type_48eb3c13_48f0_4064_be30_90725207909a_Class23 ( obj_5f875d7b_e7ae_4b0f_909a_d450223600ff o )  )  ( type_48eb3c13_48f0_4064_be30_90725207909a_Class25 ( obj_5f875d7b_e7ae_4b0f_909a_d450223600ff o )  ) ) ( type_48eb3c13_48f0_4064_be30_90725207909a_Class24 ( obj_5f875d7b_e7ae_4b0f_909a_d450223600ff o )  ) ) ( type_48eb3c13_48f0_4064_be30_90725207909a_Class39 ( obj_5f875d7b_e7ae_4b0f_909a_d450223600ff o )  ) ) ( type_48eb3c13_48f0_4064_be30_90725207909a_Class5 ( obj_5f875d7b_e7ae_4b0f_909a_d450223600ff o )  ) )):named c16))
(assert (! (exists ((o Int)) (and (and ( type_48eb3c13_48f0_4064_be30_90725207909a_Class24 ( obj_5f875d7b_e7ae_4b0f_909a_d450223600ff o )  )  ( type_48eb3c13_48f0_4064_be30_90725207909a_Class25 ( obj_5f875d7b_e7ae_4b0f_909a_d450223600ff o )  ) ) ( type_48eb3c13_48f0_4064_be30_90725207909a_Class39 ( obj_5f875d7b_e7ae_4b0f_909a_d450223600ff o )  ) )):named c17))
(assert (! (exists ((o Int)) (and ( type_48eb3c13_48f0_4064_be30_90725207909a_Class25 ( obj_5f875d7b_e7ae_4b0f_909a_d450223600ff o )  )  ( type_48eb3c13_48f0_4064_be30_90725207909a_Class39 ( obj_5f875d7b_e7ae_4b0f_909a_d450223600ff o )  ) )):named c18))
(assert (! (exists ((o Int)) ( type_48eb3c13_48f0_4064_be30_90725207909a_Class26 ( obj_5f875d7b_e7ae_4b0f_909a_d450223600ff o )  ) ):named c19))
(assert (! (exists ((o Int)) ( type_48eb3c13_48f0_4064_be30_90725207909a_Class27 ( obj_5f875d7b_e7ae_4b0f_909a_d450223600ff o )  ) ):named c20))
(assert (! (exists ((o Int)) (and (and (and (and (and (and (and ( type_48eb3c13_48f0_4064_be30_90725207909a_Class28 ( obj_5f875d7b_e7ae_4b0f_909a_d450223600ff o )  )  ( type_48eb3c13_48f0_4064_be30_90725207909a_Class45 ( obj_5f875d7b_e7ae_4b0f_909a_d450223600ff o )  ) ) ( type_48eb3c13_48f0_4064_be30_90725207909a_Class12 ( obj_5f875d7b_e7ae_4b0f_909a_d450223600ff o )  ) ) ( type_48eb3c13_48f0_4064_be30_90725207909a_Class33 ( obj_5f875d7b_e7ae_4b0f_909a_d450223600ff o )  ) ) ( type_48eb3c13_48f0_4064_be30_90725207909a_Class22 ( obj_5f875d7b_e7ae_4b0f_909a_d450223600ff o )  ) ) ( type_48eb3c13_48f0_4064_be30_90725207909a_Class29 ( obj_5f875d7b_e7ae_4b0f_909a_d450223600ff o )  ) ) ( type_48eb3c13_48f0_4064_be30_90725207909a_Class39 ( obj_5f875d7b_e7ae_4b0f_909a_d450223600ff o )  ) ) ( type_48eb3c13_48f0_4064_be30_90725207909a_Class41 ( obj_5f875d7b_e7ae_4b0f_909a_d450223600ff o )  ) )):named c21))
(assert (! (exists ((o Int)) (and (and (and (and (and (and ( type_48eb3c13_48f0_4064_be30_90725207909a_Class29 ( obj_5f875d7b_e7ae_4b0f_909a_d450223600ff o )  )  ( type_48eb3c13_48f0_4064_be30_90725207909a_Class45 ( obj_5f875d7b_e7ae_4b0f_909a_d450223600ff o )  ) ) ( type_48eb3c13_48f0_4064_be30_90725207909a_Class12 ( obj_5f875d7b_e7ae_4b0f_909a_d450223600ff o )  ) ) ( type_48eb3c13_48f0_4064_be30_90725207909a_Class33 ( obj_5f875d7b_e7ae_4b0f_909a_d450223600ff o )  ) ) ( type_48eb3c13_48f0_4064_be30_90725207909a_Class22 ( obj_5f875d7b_e7ae_4b0f_909a_d450223600ff o )  ) ) ( type_48eb3c13_48f0_4064_be30_90725207909a_Class39 ( obj_5f875d7b_e7ae_4b0f_909a_d450223600ff o )  ) ) ( type_48eb3c13_48f0_4064_be30_90725207909a_Class41 ( obj_5f875d7b_e7ae_4b0f_909a_d450223600ff o )  ) )):named c22))
(assert (! (exists ((o Int)) (and (and (and ( type_48eb3c13_48f0_4064_be30_90725207909a_Class3 ( obj_5f875d7b_e7ae_4b0f_909a_d450223600ff o )  )  ( type_48eb3c13_48f0_4064_be30_90725207909a_Class25 ( obj_5f875d7b_e7ae_4b0f_909a_d450223600ff o )  ) ) ( type_48eb3c13_48f0_4064_be30_90725207909a_Class24 ( obj_5f875d7b_e7ae_4b0f_909a_d450223600ff o )  ) ) ( type_48eb3c13_48f0_4064_be30_90725207909a_Class39 ( obj_5f875d7b_e7ae_4b0f_909a_d450223600ff o )  ) )):named c23))
(assert (! (exists ((o Int)) (and ( type_48eb3c13_48f0_4064_be30_90725207909a_Class30 ( obj_5f875d7b_e7ae_4b0f_909a_d450223600ff o )  )  ( type_48eb3c13_48f0_4064_be30_90725207909a_Class39 ( obj_5f875d7b_e7ae_4b0f_909a_d450223600ff o )  ) )):named c24))
(assert (! (exists ((o Int)) (and (and (and (and (and ( type_48eb3c13_48f0_4064_be30_90725207909a_Class31 ( obj_5f875d7b_e7ae_4b0f_909a_d450223600ff o )  )  ( type_48eb3c13_48f0_4064_be30_90725207909a_Class45 ( obj_5f875d7b_e7ae_4b0f_909a_d450223600ff o )  ) ) ( type_48eb3c13_48f0_4064_be30_90725207909a_Class12 ( obj_5f875d7b_e7ae_4b0f_909a_d450223600ff o )  ) ) ( type_48eb3c13_48f0_4064_be30_90725207909a_Class33 ( obj_5f875d7b_e7ae_4b0f_909a_d450223600ff o )  ) ) ( type_48eb3c13_48f0_4064_be30_90725207909a_Class22 ( obj_5f875d7b_e7ae_4b0f_909a_d450223600ff o )  ) ) ( type_48eb3c13_48f0_4064_be30_90725207909a_Class39 ( obj_5f875d7b_e7ae_4b0f_909a_d450223600ff o )  ) )):named c25))
(assert (! (exists ((o Int)) ( type_48eb3c13_48f0_4064_be30_90725207909a_Class32 ( obj_5f875d7b_e7ae_4b0f_909a_d450223600ff o )  ) ):named c26))
(assert (! (exists ((o Int)) (and (and ( type_48eb3c13_48f0_4064_be30_90725207909a_Class33 ( obj_5f875d7b_e7ae_4b0f_909a_d450223600ff o )  )  ( type_48eb3c13_48f0_4064_be30_90725207909a_Class22 ( obj_5f875d7b_e7ae_4b0f_909a_d450223600ff o )  ) ) ( type_48eb3c13_48f0_4064_be30_90725207909a_Class39 ( obj_5f875d7b_e7ae_4b0f_909a_d450223600ff o )  ) )):named c27))
(assert (! (exists ((o Int)) (and (and (and ( type_48eb3c13_48f0_4064_be30_90725207909a_Class34 ( obj_5f875d7b_e7ae_4b0f_909a_d450223600ff o )  )  ( type_48eb3c13_48f0_4064_be30_90725207909a_Class25 ( obj_5f875d7b_e7ae_4b0f_909a_d450223600ff o )  ) ) ( type_48eb3c13_48f0_4064_be30_90725207909a_Class24 ( obj_5f875d7b_e7ae_4b0f_909a_d450223600ff o )  ) ) ( type_48eb3c13_48f0_4064_be30_90725207909a_Class39 ( obj_5f875d7b_e7ae_4b0f_909a_d450223600ff o )  ) )):named c28))
(assert (! (exists ((o Int)) (and (and ( type_48eb3c13_48f0_4064_be30_90725207909a_Class35 ( obj_5f875d7b_e7ae_4b0f_909a_d450223600ff o )  )  ( type_48eb3c13_48f0_4064_be30_90725207909a_Class39 ( obj_5f875d7b_e7ae_4b0f_909a_d450223600ff o )  ) ) ( type_48eb3c13_48f0_4064_be30_90725207909a_Class30 ( obj_5f875d7b_e7ae_4b0f_909a_d450223600ff o )  ) )):named c29))
(assert (! (exists ((o Int)) ( type_48eb3c13_48f0_4064_be30_90725207909a_Class36 ( obj_5f875d7b_e7ae_4b0f_909a_d450223600ff o )  ) ):named c30))
(assert (! (exists ((o Int)) ( type_48eb3c13_48f0_4064_be30_90725207909a_Class37 ( obj_5f875d7b_e7ae_4b0f_909a_d450223600ff o )  ) ):named c31))
(assert (! (exists ((o Int)) ( type_48eb3c13_48f0_4064_be30_90725207909a_Class38 ( obj_5f875d7b_e7ae_4b0f_909a_d450223600ff o )  ) ):named c32))
(assert (! (exists ((o Int)) ( type_48eb3c13_48f0_4064_be30_90725207909a_Class39 ( obj_5f875d7b_e7ae_4b0f_909a_d450223600ff o )  ) ):named c33))
(assert (! (exists ((o Int)) ( type_48eb3c13_48f0_4064_be30_90725207909a_Class4 ( obj_5f875d7b_e7ae_4b0f_909a_d450223600ff o )  ) ):named c34))
(assert (! (exists ((o Int)) (and (and (and (and (and (and (and (and (and ( type_48eb3c13_48f0_4064_be30_90725207909a_Class40 ( obj_5f875d7b_e7ae_4b0f_909a_d450223600ff o )  )  ( type_48eb3c13_48f0_4064_be30_90725207909a_Class45 ( obj_5f875d7b_e7ae_4b0f_909a_d450223600ff o )  ) ) ( type_48eb3c13_48f0_4064_be30_90725207909a_Class12 ( obj_5f875d7b_e7ae_4b0f_909a_d450223600ff o )  ) ) ( type_48eb3c13_48f0_4064_be30_90725207909a_Class55 ( obj_5f875d7b_e7ae_4b0f_909a_d450223600ff o )  ) ) ( type_48eb3c13_48f0_4064_be30_90725207909a_Class33 ( obj_5f875d7b_e7ae_4b0f_909a_d450223600ff o )  ) ) ( type_48eb3c13_48f0_4064_be30_90725207909a_Class22 ( obj_5f875d7b_e7ae_4b0f_909a_d450223600ff o )  ) ) ( type_48eb3c13_48f0_4064_be30_90725207909a_Class29 ( obj_5f875d7b_e7ae_4b0f_909a_d450223600ff o )  ) ) ( type_48eb3c13_48f0_4064_be30_90725207909a_Class39 ( obj_5f875d7b_e7ae_4b0f_909a_d450223600ff o )  ) ) ( type_48eb3c13_48f0_4064_be30_90725207909a_Class50 ( obj_5f875d7b_e7ae_4b0f_909a_d450223600ff o )  ) ) ( type_48eb3c13_48f0_4064_be30_90725207909a_Class41 ( obj_5f875d7b_e7ae_4b0f_909a_d450223600ff o )  ) )):named c35))
(assert (! (exists ((o Int)) (and (and (and (and (and ( type_48eb3c13_48f0_4064_be30_90725207909a_Class41 ( obj_5f875d7b_e7ae_4b0f_909a_d450223600ff o )  )  ( type_48eb3c13_48f0_4064_be30_90725207909a_Class45 ( obj_5f875d7b_e7ae_4b0f_909a_d450223600ff o )  ) ) ( type_48eb3c13_48f0_4064_be30_90725207909a_Class12 ( obj_5f875d7b_e7ae_4b0f_909a_d450223600ff o )  ) ) ( type_48eb3c13_48f0_4064_be30_90725207909a_Class33 ( obj_5f875d7b_e7ae_4b0f_909a_d450223600ff o )  ) ) ( type_48eb3c13_48f0_4064_be30_90725207909a_Class22 ( obj_5f875d7b_e7ae_4b0f_909a_d450223600ff o )  ) ) ( type_48eb3c13_48f0_4064_be30_90725207909a_Class39 ( obj_5f875d7b_e7ae_4b0f_909a_d450223600ff o )  ) )):named c36))
(assert (! (exists ((o Int)) (and ( type_48eb3c13_48f0_4064_be30_90725207909a_Class42 ( obj_5f875d7b_e7ae_4b0f_909a_d450223600ff o )  )  ( type_48eb3c13_48f0_4064_be30_90725207909a_Class39 ( obj_5f875d7b_e7ae_4b0f_909a_d450223600ff o )  ) )):named c37))
(assert (! (exists ((o Int)) ( type_48eb3c13_48f0_4064_be30_90725207909a_Class43 ( obj_5f875d7b_e7ae_4b0f_909a_d450223600ff o )  ) ):named c38))
(assert (! (exists ((o Int)) (and (and (and (and (and (and (and ( type_48eb3c13_48f0_4064_be30_90725207909a_Class44 ( obj_5f875d7b_e7ae_4b0f_909a_d450223600ff o )  )  ( type_48eb3c13_48f0_4064_be30_90725207909a_Class45 ( obj_5f875d7b_e7ae_4b0f_909a_d450223600ff o )  ) ) ( type_48eb3c13_48f0_4064_be30_90725207909a_Class12 ( obj_5f875d7b_e7ae_4b0f_909a_d450223600ff o )  ) ) ( type_48eb3c13_48f0_4064_be30_90725207909a_Class33 ( obj_5f875d7b_e7ae_4b0f_909a_d450223600ff o )  ) ) ( type_48eb3c13_48f0_4064_be30_90725207909a_Class22 ( obj_5f875d7b_e7ae_4b0f_909a_d450223600ff o )  ) ) ( type_48eb3c13_48f0_4064_be30_90725207909a_Class29 ( obj_5f875d7b_e7ae_4b0f_909a_d450223600ff o )  ) ) ( type_48eb3c13_48f0_4064_be30_90725207909a_Class39 ( obj_5f875d7b_e7ae_4b0f_909a_d450223600ff o )  ) ) ( type_48eb3c13_48f0_4064_be30_90725207909a_Class41 ( obj_5f875d7b_e7ae_4b0f_909a_d450223600ff o )  ) )):named c39))
(assert (! (exists ((o Int)) (and (and (and (and ( type_48eb3c13_48f0_4064_be30_90725207909a_Class45 ( obj_5f875d7b_e7ae_4b0f_909a_d450223600ff o )  )  ( type_48eb3c13_48f0_4064_be30_90725207909a_Class12 ( obj_5f875d7b_e7ae_4b0f_909a_d450223600ff o )  ) ) ( type_48eb3c13_48f0_4064_be30_90725207909a_Class33 ( obj_5f875d7b_e7ae_4b0f_909a_d450223600ff o )  ) ) ( type_48eb3c13_48f0_4064_be30_90725207909a_Class22 ( obj_5f875d7b_e7ae_4b0f_909a_d450223600ff o )  ) ) ( type_48eb3c13_48f0_4064_be30_90725207909a_Class39 ( obj_5f875d7b_e7ae_4b0f_909a_d450223600ff o )  ) )):named c40))
(assert (! (exists ((o Int)) (and (and ( type_48eb3c13_48f0_4064_be30_90725207909a_Class46 ( obj_5f875d7b_e7ae_4b0f_909a_d450223600ff o )  )  ( type_48eb3c13_48f0_4064_be30_90725207909a_Class39 ( obj_5f875d7b_e7ae_4b0f_909a_d450223600ff o )  ) ) ( type_48eb3c13_48f0_4064_be30_90725207909a_Class5 ( obj_5f875d7b_e7ae_4b0f_909a_d450223600ff o )  ) )):named c41))
(assert (! (exists ((o Int)) ( type_48eb3c13_48f0_4064_be30_90725207909a_Class47 ( obj_5f875d7b_e7ae_4b0f_909a_d450223600ff o )  ) ):named c42))
(assert (! (exists ((o Int)) (and (and (and (and (and (and (and (and (and ( type_48eb3c13_48f0_4064_be30_90725207909a_Class48 ( obj_5f875d7b_e7ae_4b0f_909a_d450223600ff o )  )  ( type_48eb3c13_48f0_4064_be30_90725207909a_Class45 ( obj_5f875d7b_e7ae_4b0f_909a_d450223600ff o )  ) ) ( type_48eb3c13_48f0_4064_be30_90725207909a_Class12 ( obj_5f875d7b_e7ae_4b0f_909a_d450223600ff o )  ) ) ( type_48eb3c13_48f0_4064_be30_90725207909a_Class55 ( obj_5f875d7b_e7ae_4b0f_909a_d450223600ff o )  ) ) ( type_48eb3c13_48f0_4064_be30_90725207909a_Class33 ( obj_5f875d7b_e7ae_4b0f_909a_d450223600ff o )  ) ) ( type_48eb3c13_48f0_4064_be30_90725207909a_Class22 ( obj_5f875d7b_e7ae_4b0f_909a_d450223600ff o )  ) ) ( type_48eb3c13_48f0_4064_be30_90725207909a_Class29 ( obj_5f875d7b_e7ae_4b0f_909a_d450223600ff o )  ) ) ( type_48eb3c13_48f0_4064_be30_90725207909a_Class39 ( obj_5f875d7b_e7ae_4b0f_909a_d450223600ff o )  ) ) ( type_48eb3c13_48f0_4064_be30_90725207909a_Class50 ( obj_5f875d7b_e7ae_4b0f_909a_d450223600ff o )  ) ) ( type_48eb3c13_48f0_4064_be30_90725207909a_Class41 ( obj_5f875d7b_e7ae_4b0f_909a_d450223600ff o )  ) )):named c43))
(assert (! (exists ((o Int)) (and (and (and (and (and (and (and (and (and ( type_48eb3c13_48f0_4064_be30_90725207909a_Class49 ( obj_5f875d7b_e7ae_4b0f_909a_d450223600ff o )  )  ( type_48eb3c13_48f0_4064_be30_90725207909a_Class45 ( obj_5f875d7b_e7ae_4b0f_909a_d450223600ff o )  ) ) ( type_48eb3c13_48f0_4064_be30_90725207909a_Class12 ( obj_5f875d7b_e7ae_4b0f_909a_d450223600ff o )  ) ) ( type_48eb3c13_48f0_4064_be30_90725207909a_Class55 ( obj_5f875d7b_e7ae_4b0f_909a_d450223600ff o )  ) ) ( type_48eb3c13_48f0_4064_be30_90725207909a_Class33 ( obj_5f875d7b_e7ae_4b0f_909a_d450223600ff o )  ) ) ( type_48eb3c13_48f0_4064_be30_90725207909a_Class22 ( obj_5f875d7b_e7ae_4b0f_909a_d450223600ff o )  ) ) ( type_48eb3c13_48f0_4064_be30_90725207909a_Class29 ( obj_5f875d7b_e7ae_4b0f_909a_d450223600ff o )  ) ) ( type_48eb3c13_48f0_4064_be30_90725207909a_Class39 ( obj_5f875d7b_e7ae_4b0f_909a_d450223600ff o )  ) ) ( type_48eb3c13_48f0_4064_be30_90725207909a_Class50 ( obj_5f875d7b_e7ae_4b0f_909a_d450223600ff o )  ) ) ( type_48eb3c13_48f0_4064_be30_90725207909a_Class41 ( obj_5f875d7b_e7ae_4b0f_909a_d450223600ff o )  ) )):named c44))
(assert (! (exists ((o Int)) (and ( type_48eb3c13_48f0_4064_be30_90725207909a_Class5 ( obj_5f875d7b_e7ae_4b0f_909a_d450223600ff o )  )  ( type_48eb3c13_48f0_4064_be30_90725207909a_Class39 ( obj_5f875d7b_e7ae_4b0f_909a_d450223600ff o )  ) )):named c45))
(assert (! (exists ((o Int)) (and (and (and (and (and (and (and (and ( type_48eb3c13_48f0_4064_be30_90725207909a_Class50 ( obj_5f875d7b_e7ae_4b0f_909a_d450223600ff o )  )  ( type_48eb3c13_48f0_4064_be30_90725207909a_Class45 ( obj_5f875d7b_e7ae_4b0f_909a_d450223600ff o )  ) ) ( type_48eb3c13_48f0_4064_be30_90725207909a_Class12 ( obj_5f875d7b_e7ae_4b0f_909a_d450223600ff o )  ) ) ( type_48eb3c13_48f0_4064_be30_90725207909a_Class55 ( obj_5f875d7b_e7ae_4b0f_909a_d450223600ff o )  ) ) ( type_48eb3c13_48f0_4064_be30_90725207909a_Class33 ( obj_5f875d7b_e7ae_4b0f_909a_d450223600ff o )  ) ) ( type_48eb3c13_48f0_4064_be30_90725207909a_Class22 ( obj_5f875d7b_e7ae_4b0f_909a_d450223600ff o )  ) ) ( type_48eb3c13_48f0_4064_be30_90725207909a_Class29 ( obj_5f875d7b_e7ae_4b0f_909a_d450223600ff o )  ) ) ( type_48eb3c13_48f0_4064_be30_90725207909a_Class39 ( obj_5f875d7b_e7ae_4b0f_909a_d450223600ff o )  ) ) ( type_48eb3c13_48f0_4064_be30_90725207909a_Class41 ( obj_5f875d7b_e7ae_4b0f_909a_d450223600ff o )  ) )):named c46))
(assert (! (exists ((o Int)) (and (and (and (and (and (and ( type_48eb3c13_48f0_4064_be30_90725207909a_Class51 ( obj_5f875d7b_e7ae_4b0f_909a_d450223600ff o )  )  ( type_48eb3c13_48f0_4064_be30_90725207909a_Class45 ( obj_5f875d7b_e7ae_4b0f_909a_d450223600ff o )  ) ) ( type_48eb3c13_48f0_4064_be30_90725207909a_Class12 ( obj_5f875d7b_e7ae_4b0f_909a_d450223600ff o )  ) ) ( type_48eb3c13_48f0_4064_be30_90725207909a_Class33 ( obj_5f875d7b_e7ae_4b0f_909a_d450223600ff o )  ) ) ( type_48eb3c13_48f0_4064_be30_90725207909a_Class22 ( obj_5f875d7b_e7ae_4b0f_909a_d450223600ff o )  ) ) ( type_48eb3c13_48f0_4064_be30_90725207909a_Class16 ( obj_5f875d7b_e7ae_4b0f_909a_d450223600ff o )  ) ) ( type_48eb3c13_48f0_4064_be30_90725207909a_Class39 ( obj_5f875d7b_e7ae_4b0f_909a_d450223600ff o )  ) )):named c47))
(assert (! (exists ((o Int)) (and (and (and (and (and ( type_48eb3c13_48f0_4064_be30_90725207909a_Class52 ( obj_5f875d7b_e7ae_4b0f_909a_d450223600ff o )  )  ( type_48eb3c13_48f0_4064_be30_90725207909a_Class45 ( obj_5f875d7b_e7ae_4b0f_909a_d450223600ff o )  ) ) ( type_48eb3c13_48f0_4064_be30_90725207909a_Class12 ( obj_5f875d7b_e7ae_4b0f_909a_d450223600ff o )  ) ) ( type_48eb3c13_48f0_4064_be30_90725207909a_Class33 ( obj_5f875d7b_e7ae_4b0f_909a_d450223600ff o )  ) ) ( type_48eb3c13_48f0_4064_be30_90725207909a_Class22 ( obj_5f875d7b_e7ae_4b0f_909a_d450223600ff o )  ) ) ( type_48eb3c13_48f0_4064_be30_90725207909a_Class39 ( obj_5f875d7b_e7ae_4b0f_909a_d450223600ff o )  ) )):named c48))
(assert (! (exists ((o Int)) ( type_48eb3c13_48f0_4064_be30_90725207909a_Class53 ( obj_5f875d7b_e7ae_4b0f_909a_d450223600ff o )  ) ):named c49))
(assert (! (exists ((o Int)) ( type_48eb3c13_48f0_4064_be30_90725207909a_Class54 ( obj_5f875d7b_e7ae_4b0f_909a_d450223600ff o )  ) ):named c50))
(assert (! (exists ((o Int)) (and (and (and (and (and (and (and ( type_48eb3c13_48f0_4064_be30_90725207909a_Class55 ( obj_5f875d7b_e7ae_4b0f_909a_d450223600ff o )  )  ( type_48eb3c13_48f0_4064_be30_90725207909a_Class45 ( obj_5f875d7b_e7ae_4b0f_909a_d450223600ff o )  ) ) ( type_48eb3c13_48f0_4064_be30_90725207909a_Class12 ( obj_5f875d7b_e7ae_4b0f_909a_d450223600ff o )  ) ) ( type_48eb3c13_48f0_4064_be30_90725207909a_Class33 ( obj_5f875d7b_e7ae_4b0f_909a_d450223600ff o )  ) ) ( type_48eb3c13_48f0_4064_be30_90725207909a_Class22 ( obj_5f875d7b_e7ae_4b0f_909a_d450223600ff o )  ) ) ( type_48eb3c13_48f0_4064_be30_90725207909a_Class29 ( obj_5f875d7b_e7ae_4b0f_909a_d450223600ff o )  ) ) ( type_48eb3c13_48f0_4064_be30_90725207909a_Class39 ( obj_5f875d7b_e7ae_4b0f_909a_d450223600ff o )  ) ) ( type_48eb3c13_48f0_4064_be30_90725207909a_Class41 ( obj_5f875d7b_e7ae_4b0f_909a_d450223600ff o )  ) )):named c51))
(assert (! (exists ((o Int)) ( type_48eb3c13_48f0_4064_be30_90725207909a_Class6 ( obj_5f875d7b_e7ae_4b0f_909a_d450223600ff o )  ) ):named c52))
(assert (! (exists ((o Int)) (and (and (and (and (and (and (and (and (and ( type_48eb3c13_48f0_4064_be30_90725207909a_Class7 ( obj_5f875d7b_e7ae_4b0f_909a_d450223600ff o )  )  ( type_48eb3c13_48f0_4064_be30_90725207909a_Class45 ( obj_5f875d7b_e7ae_4b0f_909a_d450223600ff o )  ) ) ( type_48eb3c13_48f0_4064_be30_90725207909a_Class12 ( obj_5f875d7b_e7ae_4b0f_909a_d450223600ff o )  ) ) ( type_48eb3c13_48f0_4064_be30_90725207909a_Class55 ( obj_5f875d7b_e7ae_4b0f_909a_d450223600ff o )  ) ) ( type_48eb3c13_48f0_4064_be30_90725207909a_Class33 ( obj_5f875d7b_e7ae_4b0f_909a_d450223600ff o )  ) ) ( type_48eb3c13_48f0_4064_be30_90725207909a_Class22 ( obj_5f875d7b_e7ae_4b0f_909a_d450223600ff o )  ) ) ( type_48eb3c13_48f0_4064_be30_90725207909a_Class29 ( obj_5f875d7b_e7ae_4b0f_909a_d450223600ff o )  ) ) ( type_48eb3c13_48f0_4064_be30_90725207909a_Class39 ( obj_5f875d7b_e7ae_4b0f_909a_d450223600ff o )  ) ) ( type_48eb3c13_48f0_4064_be30_90725207909a_Class50 ( obj_5f875d7b_e7ae_4b0f_909a_d450223600ff o )  ) ) ( type_48eb3c13_48f0_4064_be30_90725207909a_Class41 ( obj_5f875d7b_e7ae_4b0f_909a_d450223600ff o )  ) )):named c53))
(assert (! (exists ((o Int)) (and ( type_48eb3c13_48f0_4064_be30_90725207909a_Class8 ( obj_5f875d7b_e7ae_4b0f_909a_d450223600ff o )  )  ( type_48eb3c13_48f0_4064_be30_90725207909a_Class39 ( obj_5f875d7b_e7ae_4b0f_909a_d450223600ff o )  ) )):named c54))
(assert (! (exists ((o Int)) ( type_48eb3c13_48f0_4064_be30_90725207909a_Class9 ( obj_5f875d7b_e7ae_4b0f_909a_d450223600ff o )  ) ):named c55))

 ;end of formula 